c *********************************
c * Circuit generated by BenCGen
c *
c * RippleCarryAdder_99_99_99_InOutT
c *
c * Ports with 1 gate(s): 1
c * Ports with 2 gate(s): 496
c * Total gates: 497
c *********************************
p cnf 695 1688
1 300 0
-1 -300 0
1 -299 0
300 -299 0
-1 -300 299 0
1 100 -302 0
-1 100 302 0
1 -100 302 0
-1 -100 -302 0
302 299 -199 0
-302 299 199 0
302 -299 199 0
-302 -299 -199 0
299 -303 0
302 -303 0
-299 -302 303 0
100 -304 0
1 -304 0
-100 -1 304 0
-303 301 0
-304 301 0
303 304 -301 0
2 101 -306 0
-2 101 306 0
2 -101 306 0
-2 -101 -306 0
306 301 -200 0
-306 301 200 0
306 -301 200 0
-306 -301 -200 0
301 -307 0
306 -307 0
-301 -306 307 0
101 -308 0
2 -308 0
-101 -2 308 0
-307 305 0
-308 305 0
307 308 -305 0
3 102 -310 0
-3 102 310 0
3 -102 310 0
-3 -102 -310 0
310 305 -201 0
-310 305 201 0
310 -305 201 0
-310 -305 -201 0
305 -311 0
310 -311 0
-305 -310 311 0
102 -312 0
3 -312 0
-102 -3 312 0
-311 309 0
-312 309 0
311 312 -309 0
4 103 -314 0
-4 103 314 0
4 -103 314 0
-4 -103 -314 0
314 309 -202 0
-314 309 202 0
314 -309 202 0
-314 -309 -202 0
309 -315 0
314 -315 0
-309 -314 315 0
103 -316 0
4 -316 0
-103 -4 316 0
-315 313 0
-316 313 0
315 316 -313 0
5 104 -318 0
-5 104 318 0
5 -104 318 0
-5 -104 -318 0
318 313 -203 0
-318 313 203 0
318 -313 203 0
-318 -313 -203 0
313 -319 0
318 -319 0
-313 -318 319 0
104 -320 0
5 -320 0
-104 -5 320 0
-319 317 0
-320 317 0
319 320 -317 0
6 105 -322 0
-6 105 322 0
6 -105 322 0
-6 -105 -322 0
322 317 -204 0
-322 317 204 0
322 -317 204 0
-322 -317 -204 0
317 -323 0
322 -323 0
-317 -322 323 0
105 -324 0
6 -324 0
-105 -6 324 0
-323 321 0
-324 321 0
323 324 -321 0
7 106 -326 0
-7 106 326 0
7 -106 326 0
-7 -106 -326 0
326 321 -205 0
-326 321 205 0
326 -321 205 0
-326 -321 -205 0
321 -327 0
326 -327 0
-321 -326 327 0
106 -328 0
7 -328 0
-106 -7 328 0
-327 325 0
-328 325 0
327 328 -325 0
8 107 -330 0
-8 107 330 0
8 -107 330 0
-8 -107 -330 0
330 325 -206 0
-330 325 206 0
330 -325 206 0
-330 -325 -206 0
325 -331 0
330 -331 0
-325 -330 331 0
107 -332 0
8 -332 0
-107 -8 332 0
-331 329 0
-332 329 0
331 332 -329 0
9 108 -334 0
-9 108 334 0
9 -108 334 0
-9 -108 -334 0
334 329 -207 0
-334 329 207 0
334 -329 207 0
-334 -329 -207 0
329 -335 0
334 -335 0
-329 -334 335 0
108 -336 0
9 -336 0
-108 -9 336 0
-335 333 0
-336 333 0
335 336 -333 0
10 109 -338 0
-10 109 338 0
10 -109 338 0
-10 -109 -338 0
338 333 -208 0
-338 333 208 0
338 -333 208 0
-338 -333 -208 0
333 -339 0
338 -339 0
-333 -338 339 0
109 -340 0
10 -340 0
-109 -10 340 0
-339 337 0
-340 337 0
339 340 -337 0
11 110 -342 0
-11 110 342 0
11 -110 342 0
-11 -110 -342 0
342 337 -209 0
-342 337 209 0
342 -337 209 0
-342 -337 -209 0
337 -343 0
342 -343 0
-337 -342 343 0
110 -344 0
11 -344 0
-110 -11 344 0
-343 341 0
-344 341 0
343 344 -341 0
12 111 -346 0
-12 111 346 0
12 -111 346 0
-12 -111 -346 0
346 341 -210 0
-346 341 210 0
346 -341 210 0
-346 -341 -210 0
341 -347 0
346 -347 0
-341 -346 347 0
111 -348 0
12 -348 0
-111 -12 348 0
-347 345 0
-348 345 0
347 348 -345 0
13 112 -350 0
-13 112 350 0
13 -112 350 0
-13 -112 -350 0
350 345 -211 0
-350 345 211 0
350 -345 211 0
-350 -345 -211 0
345 -351 0
350 -351 0
-345 -350 351 0
112 -352 0
13 -352 0
-112 -13 352 0
-351 349 0
-352 349 0
351 352 -349 0
14 113 -354 0
-14 113 354 0
14 -113 354 0
-14 -113 -354 0
354 349 -212 0
-354 349 212 0
354 -349 212 0
-354 -349 -212 0
349 -355 0
354 -355 0
-349 -354 355 0
113 -356 0
14 -356 0
-113 -14 356 0
-355 353 0
-356 353 0
355 356 -353 0
15 114 -358 0
-15 114 358 0
15 -114 358 0
-15 -114 -358 0
358 353 -213 0
-358 353 213 0
358 -353 213 0
-358 -353 -213 0
353 -359 0
358 -359 0
-353 -358 359 0
114 -360 0
15 -360 0
-114 -15 360 0
-359 357 0
-360 357 0
359 360 -357 0
16 115 -362 0
-16 115 362 0
16 -115 362 0
-16 -115 -362 0
362 357 -214 0
-362 357 214 0
362 -357 214 0
-362 -357 -214 0
357 -363 0
362 -363 0
-357 -362 363 0
115 -364 0
16 -364 0
-115 -16 364 0
-363 361 0
-364 361 0
363 364 -361 0
17 116 -366 0
-17 116 366 0
17 -116 366 0
-17 -116 -366 0
366 361 -215 0
-366 361 215 0
366 -361 215 0
-366 -361 -215 0
361 -367 0
366 -367 0
-361 -366 367 0
116 -368 0
17 -368 0
-116 -17 368 0
-367 365 0
-368 365 0
367 368 -365 0
18 117 -370 0
-18 117 370 0
18 -117 370 0
-18 -117 -370 0
370 365 -216 0
-370 365 216 0
370 -365 216 0
-370 -365 -216 0
365 -371 0
370 -371 0
-365 -370 371 0
117 -372 0
18 -372 0
-117 -18 372 0
-371 369 0
-372 369 0
371 372 -369 0
19 118 -374 0
-19 118 374 0
19 -118 374 0
-19 -118 -374 0
374 369 -217 0
-374 369 217 0
374 -369 217 0
-374 -369 -217 0
369 -375 0
374 -375 0
-369 -374 375 0
118 -376 0
19 -376 0
-118 -19 376 0
-375 373 0
-376 373 0
375 376 -373 0
20 119 -378 0
-20 119 378 0
20 -119 378 0
-20 -119 -378 0
378 373 -218 0
-378 373 218 0
378 -373 218 0
-378 -373 -218 0
373 -379 0
378 -379 0
-373 -378 379 0
119 -380 0
20 -380 0
-119 -20 380 0
-379 377 0
-380 377 0
379 380 -377 0
21 120 -382 0
-21 120 382 0
21 -120 382 0
-21 -120 -382 0
382 377 -219 0
-382 377 219 0
382 -377 219 0
-382 -377 -219 0
377 -383 0
382 -383 0
-377 -382 383 0
120 -384 0
21 -384 0
-120 -21 384 0
-383 381 0
-384 381 0
383 384 -381 0
22 121 -386 0
-22 121 386 0
22 -121 386 0
-22 -121 -386 0
386 381 -220 0
-386 381 220 0
386 -381 220 0
-386 -381 -220 0
381 -387 0
386 -387 0
-381 -386 387 0
121 -388 0
22 -388 0
-121 -22 388 0
-387 385 0
-388 385 0
387 388 -385 0
23 122 -390 0
-23 122 390 0
23 -122 390 0
-23 -122 -390 0
390 385 -221 0
-390 385 221 0
390 -385 221 0
-390 -385 -221 0
385 -391 0
390 -391 0
-385 -390 391 0
122 -392 0
23 -392 0
-122 -23 392 0
-391 389 0
-392 389 0
391 392 -389 0
24 123 -394 0
-24 123 394 0
24 -123 394 0
-24 -123 -394 0
394 389 -222 0
-394 389 222 0
394 -389 222 0
-394 -389 -222 0
389 -395 0
394 -395 0
-389 -394 395 0
123 -396 0
24 -396 0
-123 -24 396 0
-395 393 0
-396 393 0
395 396 -393 0
25 124 -398 0
-25 124 398 0
25 -124 398 0
-25 -124 -398 0
398 393 -223 0
-398 393 223 0
398 -393 223 0
-398 -393 -223 0
393 -399 0
398 -399 0
-393 -398 399 0
124 -400 0
25 -400 0
-124 -25 400 0
-399 397 0
-400 397 0
399 400 -397 0
26 125 -402 0
-26 125 402 0
26 -125 402 0
-26 -125 -402 0
402 397 -224 0
-402 397 224 0
402 -397 224 0
-402 -397 -224 0
397 -403 0
402 -403 0
-397 -402 403 0
125 -404 0
26 -404 0
-125 -26 404 0
-403 401 0
-404 401 0
403 404 -401 0
27 126 -406 0
-27 126 406 0
27 -126 406 0
-27 -126 -406 0
406 401 -225 0
-406 401 225 0
406 -401 225 0
-406 -401 -225 0
401 -407 0
406 -407 0
-401 -406 407 0
126 -408 0
27 -408 0
-126 -27 408 0
-407 405 0
-408 405 0
407 408 -405 0
28 127 -410 0
-28 127 410 0
28 -127 410 0
-28 -127 -410 0
410 405 -226 0
-410 405 226 0
410 -405 226 0
-410 -405 -226 0
405 -411 0
410 -411 0
-405 -410 411 0
127 -412 0
28 -412 0
-127 -28 412 0
-411 409 0
-412 409 0
411 412 -409 0
29 128 -414 0
-29 128 414 0
29 -128 414 0
-29 -128 -414 0
414 409 -227 0
-414 409 227 0
414 -409 227 0
-414 -409 -227 0
409 -415 0
414 -415 0
-409 -414 415 0
128 -416 0
29 -416 0
-128 -29 416 0
-415 413 0
-416 413 0
415 416 -413 0
30 129 -418 0
-30 129 418 0
30 -129 418 0
-30 -129 -418 0
418 413 -228 0
-418 413 228 0
418 -413 228 0
-418 -413 -228 0
413 -419 0
418 -419 0
-413 -418 419 0
129 -420 0
30 -420 0
-129 -30 420 0
-419 417 0
-420 417 0
419 420 -417 0
31 130 -422 0
-31 130 422 0
31 -130 422 0
-31 -130 -422 0
422 417 -229 0
-422 417 229 0
422 -417 229 0
-422 -417 -229 0
417 -423 0
422 -423 0
-417 -422 423 0
130 -424 0
31 -424 0
-130 -31 424 0
-423 421 0
-424 421 0
423 424 -421 0
32 131 -426 0
-32 131 426 0
32 -131 426 0
-32 -131 -426 0
426 421 -230 0
-426 421 230 0
426 -421 230 0
-426 -421 -230 0
421 -427 0
426 -427 0
-421 -426 427 0
131 -428 0
32 -428 0
-131 -32 428 0
-427 425 0
-428 425 0
427 428 -425 0
33 132 -430 0
-33 132 430 0
33 -132 430 0
-33 -132 -430 0
430 425 -231 0
-430 425 231 0
430 -425 231 0
-430 -425 -231 0
425 -431 0
430 -431 0
-425 -430 431 0
132 -432 0
33 -432 0
-132 -33 432 0
-431 429 0
-432 429 0
431 432 -429 0
34 133 -434 0
-34 133 434 0
34 -133 434 0
-34 -133 -434 0
434 429 -232 0
-434 429 232 0
434 -429 232 0
-434 -429 -232 0
429 -435 0
434 -435 0
-429 -434 435 0
133 -436 0
34 -436 0
-133 -34 436 0
-435 433 0
-436 433 0
435 436 -433 0
35 134 -438 0
-35 134 438 0
35 -134 438 0
-35 -134 -438 0
438 433 -233 0
-438 433 233 0
438 -433 233 0
-438 -433 -233 0
433 -439 0
438 -439 0
-433 -438 439 0
134 -440 0
35 -440 0
-134 -35 440 0
-439 437 0
-440 437 0
439 440 -437 0
36 135 -442 0
-36 135 442 0
36 -135 442 0
-36 -135 -442 0
442 437 -234 0
-442 437 234 0
442 -437 234 0
-442 -437 -234 0
437 -443 0
442 -443 0
-437 -442 443 0
135 -444 0
36 -444 0
-135 -36 444 0
-443 441 0
-444 441 0
443 444 -441 0
37 136 -446 0
-37 136 446 0
37 -136 446 0
-37 -136 -446 0
446 441 -235 0
-446 441 235 0
446 -441 235 0
-446 -441 -235 0
441 -447 0
446 -447 0
-441 -446 447 0
136 -448 0
37 -448 0
-136 -37 448 0
-447 445 0
-448 445 0
447 448 -445 0
38 137 -450 0
-38 137 450 0
38 -137 450 0
-38 -137 -450 0
450 445 -236 0
-450 445 236 0
450 -445 236 0
-450 -445 -236 0
445 -451 0
450 -451 0
-445 -450 451 0
137 -452 0
38 -452 0
-137 -38 452 0
-451 449 0
-452 449 0
451 452 -449 0
39 138 -454 0
-39 138 454 0
39 -138 454 0
-39 -138 -454 0
454 449 -237 0
-454 449 237 0
454 -449 237 0
-454 -449 -237 0
449 -455 0
454 -455 0
-449 -454 455 0
138 -456 0
39 -456 0
-138 -39 456 0
-455 453 0
-456 453 0
455 456 -453 0
40 139 -458 0
-40 139 458 0
40 -139 458 0
-40 -139 -458 0
458 453 -238 0
-458 453 238 0
458 -453 238 0
-458 -453 -238 0
453 -459 0
458 -459 0
-453 -458 459 0
139 -460 0
40 -460 0
-139 -40 460 0
-459 457 0
-460 457 0
459 460 -457 0
41 140 -462 0
-41 140 462 0
41 -140 462 0
-41 -140 -462 0
462 457 -239 0
-462 457 239 0
462 -457 239 0
-462 -457 -239 0
457 -463 0
462 -463 0
-457 -462 463 0
140 -464 0
41 -464 0
-140 -41 464 0
-463 461 0
-464 461 0
463 464 -461 0
42 141 -466 0
-42 141 466 0
42 -141 466 0
-42 -141 -466 0
466 461 -240 0
-466 461 240 0
466 -461 240 0
-466 -461 -240 0
461 -467 0
466 -467 0
-461 -466 467 0
141 -468 0
42 -468 0
-141 -42 468 0
-467 465 0
-468 465 0
467 468 -465 0
43 142 -470 0
-43 142 470 0
43 -142 470 0
-43 -142 -470 0
470 465 -241 0
-470 465 241 0
470 -465 241 0
-470 -465 -241 0
465 -471 0
470 -471 0
-465 -470 471 0
142 -472 0
43 -472 0
-142 -43 472 0
-471 469 0
-472 469 0
471 472 -469 0
44 143 -474 0
-44 143 474 0
44 -143 474 0
-44 -143 -474 0
474 469 -242 0
-474 469 242 0
474 -469 242 0
-474 -469 -242 0
469 -475 0
474 -475 0
-469 -474 475 0
143 -476 0
44 -476 0
-143 -44 476 0
-475 473 0
-476 473 0
475 476 -473 0
45 144 -478 0
-45 144 478 0
45 -144 478 0
-45 -144 -478 0
478 473 -243 0
-478 473 243 0
478 -473 243 0
-478 -473 -243 0
473 -479 0
478 -479 0
-473 -478 479 0
144 -480 0
45 -480 0
-144 -45 480 0
-479 477 0
-480 477 0
479 480 -477 0
46 145 -482 0
-46 145 482 0
46 -145 482 0
-46 -145 -482 0
482 477 -244 0
-482 477 244 0
482 -477 244 0
-482 -477 -244 0
477 -483 0
482 -483 0
-477 -482 483 0
145 -484 0
46 -484 0
-145 -46 484 0
-483 481 0
-484 481 0
483 484 -481 0
47 146 -486 0
-47 146 486 0
47 -146 486 0
-47 -146 -486 0
486 481 -245 0
-486 481 245 0
486 -481 245 0
-486 -481 -245 0
481 -487 0
486 -487 0
-481 -486 487 0
146 -488 0
47 -488 0
-146 -47 488 0
-487 485 0
-488 485 0
487 488 -485 0
48 147 -490 0
-48 147 490 0
48 -147 490 0
-48 -147 -490 0
490 485 -246 0
-490 485 246 0
490 -485 246 0
-490 -485 -246 0
485 -491 0
490 -491 0
-485 -490 491 0
147 -492 0
48 -492 0
-147 -48 492 0
-491 489 0
-492 489 0
491 492 -489 0
49 148 -494 0
-49 148 494 0
49 -148 494 0
-49 -148 -494 0
494 489 -247 0
-494 489 247 0
494 -489 247 0
-494 -489 -247 0
489 -495 0
494 -495 0
-489 -494 495 0
148 -496 0
49 -496 0
-148 -49 496 0
-495 493 0
-496 493 0
495 496 -493 0
50 149 -498 0
-50 149 498 0
50 -149 498 0
-50 -149 -498 0
498 493 -248 0
-498 493 248 0
498 -493 248 0
-498 -493 -248 0
493 -499 0
498 -499 0
-493 -498 499 0
149 -500 0
50 -500 0
-149 -50 500 0
-499 497 0
-500 497 0
499 500 -497 0
51 150 -502 0
-51 150 502 0
51 -150 502 0
-51 -150 -502 0
502 497 -249 0
-502 497 249 0
502 -497 249 0
-502 -497 -249 0
497 -503 0
502 -503 0
-497 -502 503 0
150 -504 0
51 -504 0
-150 -51 504 0
-503 501 0
-504 501 0
503 504 -501 0
52 151 -506 0
-52 151 506 0
52 -151 506 0
-52 -151 -506 0
506 501 -250 0
-506 501 250 0
506 -501 250 0
-506 -501 -250 0
501 -507 0
506 -507 0
-501 -506 507 0
151 -508 0
52 -508 0
-151 -52 508 0
-507 505 0
-508 505 0
507 508 -505 0
53 152 -510 0
-53 152 510 0
53 -152 510 0
-53 -152 -510 0
510 505 -251 0
-510 505 251 0
510 -505 251 0
-510 -505 -251 0
505 -511 0
510 -511 0
-505 -510 511 0
152 -512 0
53 -512 0
-152 -53 512 0
-511 509 0
-512 509 0
511 512 -509 0
54 153 -514 0
-54 153 514 0
54 -153 514 0
-54 -153 -514 0
514 509 -252 0
-514 509 252 0
514 -509 252 0
-514 -509 -252 0
509 -515 0
514 -515 0
-509 -514 515 0
153 -516 0
54 -516 0
-153 -54 516 0
-515 513 0
-516 513 0
515 516 -513 0
55 154 -518 0
-55 154 518 0
55 -154 518 0
-55 -154 -518 0
518 513 -253 0
-518 513 253 0
518 -513 253 0
-518 -513 -253 0
513 -519 0
518 -519 0
-513 -518 519 0
154 -520 0
55 -520 0
-154 -55 520 0
-519 517 0
-520 517 0
519 520 -517 0
56 155 -522 0
-56 155 522 0
56 -155 522 0
-56 -155 -522 0
522 517 -254 0
-522 517 254 0
522 -517 254 0
-522 -517 -254 0
517 -523 0
522 -523 0
-517 -522 523 0
155 -524 0
56 -524 0
-155 -56 524 0
-523 521 0
-524 521 0
523 524 -521 0
57 156 -526 0
-57 156 526 0
57 -156 526 0
-57 -156 -526 0
526 521 -255 0
-526 521 255 0
526 -521 255 0
-526 -521 -255 0
521 -527 0
526 -527 0
-521 -526 527 0
156 -528 0
57 -528 0
-156 -57 528 0
-527 525 0
-528 525 0
527 528 -525 0
58 157 -530 0
-58 157 530 0
58 -157 530 0
-58 -157 -530 0
530 525 -256 0
-530 525 256 0
530 -525 256 0
-530 -525 -256 0
525 -531 0
530 -531 0
-525 -530 531 0
157 -532 0
58 -532 0
-157 -58 532 0
-531 529 0
-532 529 0
531 532 -529 0
59 158 -534 0
-59 158 534 0
59 -158 534 0
-59 -158 -534 0
534 529 -257 0
-534 529 257 0
534 -529 257 0
-534 -529 -257 0
529 -535 0
534 -535 0
-529 -534 535 0
158 -536 0
59 -536 0
-158 -59 536 0
-535 533 0
-536 533 0
535 536 -533 0
60 159 -538 0
-60 159 538 0
60 -159 538 0
-60 -159 -538 0
538 533 -258 0
-538 533 258 0
538 -533 258 0
-538 -533 -258 0
533 -539 0
538 -539 0
-533 -538 539 0
159 -540 0
60 -540 0
-159 -60 540 0
-539 537 0
-540 537 0
539 540 -537 0
61 160 -542 0
-61 160 542 0
61 -160 542 0
-61 -160 -542 0
542 537 -259 0
-542 537 259 0
542 -537 259 0
-542 -537 -259 0
537 -543 0
542 -543 0
-537 -542 543 0
160 -544 0
61 -544 0
-160 -61 544 0
-543 541 0
-544 541 0
543 544 -541 0
62 161 -546 0
-62 161 546 0
62 -161 546 0
-62 -161 -546 0
546 541 -260 0
-546 541 260 0
546 -541 260 0
-546 -541 -260 0
541 -547 0
546 -547 0
-541 -546 547 0
161 -548 0
62 -548 0
-161 -62 548 0
-547 545 0
-548 545 0
547 548 -545 0
63 162 -550 0
-63 162 550 0
63 -162 550 0
-63 -162 -550 0
550 545 -261 0
-550 545 261 0
550 -545 261 0
-550 -545 -261 0
545 -551 0
550 -551 0
-545 -550 551 0
162 -552 0
63 -552 0
-162 -63 552 0
-551 549 0
-552 549 0
551 552 -549 0
64 163 -554 0
-64 163 554 0
64 -163 554 0
-64 -163 -554 0
554 549 -262 0
-554 549 262 0
554 -549 262 0
-554 -549 -262 0
549 -555 0
554 -555 0
-549 -554 555 0
163 -556 0
64 -556 0
-163 -64 556 0
-555 553 0
-556 553 0
555 556 -553 0
65 164 -558 0
-65 164 558 0
65 -164 558 0
-65 -164 -558 0
558 553 -263 0
-558 553 263 0
558 -553 263 0
-558 -553 -263 0
553 -559 0
558 -559 0
-553 -558 559 0
164 -560 0
65 -560 0
-164 -65 560 0
-559 557 0
-560 557 0
559 560 -557 0
66 165 -562 0
-66 165 562 0
66 -165 562 0
-66 -165 -562 0
562 557 -264 0
-562 557 264 0
562 -557 264 0
-562 -557 -264 0
557 -563 0
562 -563 0
-557 -562 563 0
165 -564 0
66 -564 0
-165 -66 564 0
-563 561 0
-564 561 0
563 564 -561 0
67 166 -566 0
-67 166 566 0
67 -166 566 0
-67 -166 -566 0
566 561 -265 0
-566 561 265 0
566 -561 265 0
-566 -561 -265 0
561 -567 0
566 -567 0
-561 -566 567 0
166 -568 0
67 -568 0
-166 -67 568 0
-567 565 0
-568 565 0
567 568 -565 0
68 167 -570 0
-68 167 570 0
68 -167 570 0
-68 -167 -570 0
570 565 -266 0
-570 565 266 0
570 -565 266 0
-570 -565 -266 0
565 -571 0
570 -571 0
-565 -570 571 0
167 -572 0
68 -572 0
-167 -68 572 0
-571 569 0
-572 569 0
571 572 -569 0
69 168 -574 0
-69 168 574 0
69 -168 574 0
-69 -168 -574 0
574 569 -267 0
-574 569 267 0
574 -569 267 0
-574 -569 -267 0
569 -575 0
574 -575 0
-569 -574 575 0
168 -576 0
69 -576 0
-168 -69 576 0
-575 573 0
-576 573 0
575 576 -573 0
70 169 -578 0
-70 169 578 0
70 -169 578 0
-70 -169 -578 0
578 573 -268 0
-578 573 268 0
578 -573 268 0
-578 -573 -268 0
573 -579 0
578 -579 0
-573 -578 579 0
169 -580 0
70 -580 0
-169 -70 580 0
-579 577 0
-580 577 0
579 580 -577 0
71 170 -582 0
-71 170 582 0
71 -170 582 0
-71 -170 -582 0
582 577 -269 0
-582 577 269 0
582 -577 269 0
-582 -577 -269 0
577 -583 0
582 -583 0
-577 -582 583 0
170 -584 0
71 -584 0
-170 -71 584 0
-583 581 0
-584 581 0
583 584 -581 0
72 171 -586 0
-72 171 586 0
72 -171 586 0
-72 -171 -586 0
586 581 -270 0
-586 581 270 0
586 -581 270 0
-586 -581 -270 0
581 -587 0
586 -587 0
-581 -586 587 0
171 -588 0
72 -588 0
-171 -72 588 0
-587 585 0
-588 585 0
587 588 -585 0
73 172 -590 0
-73 172 590 0
73 -172 590 0
-73 -172 -590 0
590 585 -271 0
-590 585 271 0
590 -585 271 0
-590 -585 -271 0
585 -591 0
590 -591 0
-585 -590 591 0
172 -592 0
73 -592 0
-172 -73 592 0
-591 589 0
-592 589 0
591 592 -589 0
74 173 -594 0
-74 173 594 0
74 -173 594 0
-74 -173 -594 0
594 589 -272 0
-594 589 272 0
594 -589 272 0
-594 -589 -272 0
589 -595 0
594 -595 0
-589 -594 595 0
173 -596 0
74 -596 0
-173 -74 596 0
-595 593 0
-596 593 0
595 596 -593 0
75 174 -598 0
-75 174 598 0
75 -174 598 0
-75 -174 -598 0
598 593 -273 0
-598 593 273 0
598 -593 273 0
-598 -593 -273 0
593 -599 0
598 -599 0
-593 -598 599 0
174 -600 0
75 -600 0
-174 -75 600 0
-599 597 0
-600 597 0
599 600 -597 0
76 175 -602 0
-76 175 602 0
76 -175 602 0
-76 -175 -602 0
602 597 -274 0
-602 597 274 0
602 -597 274 0
-602 -597 -274 0
597 -603 0
602 -603 0
-597 -602 603 0
175 -604 0
76 -604 0
-175 -76 604 0
-603 601 0
-604 601 0
603 604 -601 0
77 176 -606 0
-77 176 606 0
77 -176 606 0
-77 -176 -606 0
606 601 -275 0
-606 601 275 0
606 -601 275 0
-606 -601 -275 0
601 -607 0
606 -607 0
-601 -606 607 0
176 -608 0
77 -608 0
-176 -77 608 0
-607 605 0
-608 605 0
607 608 -605 0
78 177 -610 0
-78 177 610 0
78 -177 610 0
-78 -177 -610 0
610 605 -276 0
-610 605 276 0
610 -605 276 0
-610 -605 -276 0
605 -611 0
610 -611 0
-605 -610 611 0
177 -612 0
78 -612 0
-177 -78 612 0
-611 609 0
-612 609 0
611 612 -609 0
79 178 -614 0
-79 178 614 0
79 -178 614 0
-79 -178 -614 0
614 609 -277 0
-614 609 277 0
614 -609 277 0
-614 -609 -277 0
609 -615 0
614 -615 0
-609 -614 615 0
178 -616 0
79 -616 0
-178 -79 616 0
-615 613 0
-616 613 0
615 616 -613 0
80 179 -618 0
-80 179 618 0
80 -179 618 0
-80 -179 -618 0
618 613 -278 0
-618 613 278 0
618 -613 278 0
-618 -613 -278 0
613 -619 0
618 -619 0
-613 -618 619 0
179 -620 0
80 -620 0
-179 -80 620 0
-619 617 0
-620 617 0
619 620 -617 0
81 180 -622 0
-81 180 622 0
81 -180 622 0
-81 -180 -622 0
622 617 -279 0
-622 617 279 0
622 -617 279 0
-622 -617 -279 0
617 -623 0
622 -623 0
-617 -622 623 0
180 -624 0
81 -624 0
-180 -81 624 0
-623 621 0
-624 621 0
623 624 -621 0
82 181 -626 0
-82 181 626 0
82 -181 626 0
-82 -181 -626 0
626 621 -280 0
-626 621 280 0
626 -621 280 0
-626 -621 -280 0
621 -627 0
626 -627 0
-621 -626 627 0
181 -628 0
82 -628 0
-181 -82 628 0
-627 625 0
-628 625 0
627 628 -625 0
83 182 -630 0
-83 182 630 0
83 -182 630 0
-83 -182 -630 0
630 625 -281 0
-630 625 281 0
630 -625 281 0
-630 -625 -281 0
625 -631 0
630 -631 0
-625 -630 631 0
182 -632 0
83 -632 0
-182 -83 632 0
-631 629 0
-632 629 0
631 632 -629 0
84 183 -634 0
-84 183 634 0
84 -183 634 0
-84 -183 -634 0
634 629 -282 0
-634 629 282 0
634 -629 282 0
-634 -629 -282 0
629 -635 0
634 -635 0
-629 -634 635 0
183 -636 0
84 -636 0
-183 -84 636 0
-635 633 0
-636 633 0
635 636 -633 0
85 184 -638 0
-85 184 638 0
85 -184 638 0
-85 -184 -638 0
638 633 -283 0
-638 633 283 0
638 -633 283 0
-638 -633 -283 0
633 -639 0
638 -639 0
-633 -638 639 0
184 -640 0
85 -640 0
-184 -85 640 0
-639 637 0
-640 637 0
639 640 -637 0
86 185 -642 0
-86 185 642 0
86 -185 642 0
-86 -185 -642 0
642 637 -284 0
-642 637 284 0
642 -637 284 0
-642 -637 -284 0
637 -643 0
642 -643 0
-637 -642 643 0
185 -644 0
86 -644 0
-185 -86 644 0
-643 641 0
-644 641 0
643 644 -641 0
87 186 -646 0
-87 186 646 0
87 -186 646 0
-87 -186 -646 0
646 641 -285 0
-646 641 285 0
646 -641 285 0
-646 -641 -285 0
641 -647 0
646 -647 0
-641 -646 647 0
186 -648 0
87 -648 0
-186 -87 648 0
-647 645 0
-648 645 0
647 648 -645 0
88 187 -650 0
-88 187 650 0
88 -187 650 0
-88 -187 -650 0
650 645 -286 0
-650 645 286 0
650 -645 286 0
-650 -645 -286 0
645 -651 0
650 -651 0
-645 -650 651 0
187 -652 0
88 -652 0
-187 -88 652 0
-651 649 0
-652 649 0
651 652 -649 0
89 188 -654 0
-89 188 654 0
89 -188 654 0
-89 -188 -654 0
654 649 -287 0
-654 649 287 0
654 -649 287 0
-654 -649 -287 0
649 -655 0
654 -655 0
-649 -654 655 0
188 -656 0
89 -656 0
-188 -89 656 0
-655 653 0
-656 653 0
655 656 -653 0
90 189 -658 0
-90 189 658 0
90 -189 658 0
-90 -189 -658 0
658 653 -288 0
-658 653 288 0
658 -653 288 0
-658 -653 -288 0
653 -659 0
658 -659 0
-653 -658 659 0
189 -660 0
90 -660 0
-189 -90 660 0
-659 657 0
-660 657 0
659 660 -657 0
91 190 -662 0
-91 190 662 0
91 -190 662 0
-91 -190 -662 0
662 657 -289 0
-662 657 289 0
662 -657 289 0
-662 -657 -289 0
657 -663 0
662 -663 0
-657 -662 663 0
190 -664 0
91 -664 0
-190 -91 664 0
-663 661 0
-664 661 0
663 664 -661 0
92 191 -666 0
-92 191 666 0
92 -191 666 0
-92 -191 -666 0
666 661 -290 0
-666 661 290 0
666 -661 290 0
-666 -661 -290 0
661 -667 0
666 -667 0
-661 -666 667 0
191 -668 0
92 -668 0
-191 -92 668 0
-667 665 0
-668 665 0
667 668 -665 0
93 192 -670 0
-93 192 670 0
93 -192 670 0
-93 -192 -670 0
670 665 -291 0
-670 665 291 0
670 -665 291 0
-670 -665 -291 0
665 -671 0
670 -671 0
-665 -670 671 0
192 -672 0
93 -672 0
-192 -93 672 0
-671 669 0
-672 669 0
671 672 -669 0
94 193 -674 0
-94 193 674 0
94 -193 674 0
-94 -193 -674 0
674 669 -292 0
-674 669 292 0
674 -669 292 0
-674 -669 -292 0
669 -675 0
674 -675 0
-669 -674 675 0
193 -676 0
94 -676 0
-193 -94 676 0
-675 673 0
-676 673 0
675 676 -673 0
95 194 -678 0
-95 194 678 0
95 -194 678 0
-95 -194 -678 0
678 673 -293 0
-678 673 293 0
678 -673 293 0
-678 -673 -293 0
673 -679 0
678 -679 0
-673 -678 679 0
194 -680 0
95 -680 0
-194 -95 680 0
-679 677 0
-680 677 0
679 680 -677 0
96 195 -682 0
-96 195 682 0
96 -195 682 0
-96 -195 -682 0
682 677 -294 0
-682 677 294 0
682 -677 294 0
-682 -677 -294 0
677 -683 0
682 -683 0
-677 -682 683 0
195 -684 0
96 -684 0
-195 -96 684 0
-683 681 0
-684 681 0
683 684 -681 0
97 196 -686 0
-97 196 686 0
97 -196 686 0
-97 -196 -686 0
686 681 -295 0
-686 681 295 0
686 -681 295 0
-686 -681 -295 0
681 -687 0
686 -687 0
-681 -686 687 0
196 -688 0
97 -688 0
-196 -97 688 0
-687 685 0
-688 685 0
687 688 -685 0
98 197 -690 0
-98 197 690 0
98 -197 690 0
-98 -197 -690 0
690 685 -296 0
-690 685 296 0
690 -685 296 0
-690 -685 -296 0
685 -691 0
690 -691 0
-685 -690 691 0
197 -692 0
98 -692 0
-197 -98 692 0
-691 689 0
-692 689 0
691 692 -689 0
99 198 -693 0
-99 198 693 0
99 -198 693 0
-99 -198 -693 0
693 689 -297 0
-693 689 297 0
693 -689 297 0
-693 -689 -297 0
689 -694 0
693 -694 0
-689 -693 694 0
198 -695 0
99 -695 0
-198 -99 695 0
-694 298 0
-695 298 0
694 695 -298 0
